Route 1: 47 24 25 27 29 30 28 26 23 22 21 20
Route 2: 67 65 63 62 74 72 61 64 68 66 69
Route 3: 5 3 7 8 10 11 9 6 4 2 1 75
Route 4: 43 42 41 40 44 45 48 51 50 46 49 52
Route 5: 90 87 89 86 83 84 85 88 91 94 96 98
Route 6: 13 17 18 19 15 16 14 12 99
Route 7: 32 33 31 35 37 38 39 36 34
Route 8: 55 59 53 56 58 60 54 57
Route 9: 81 78 76 73 70 71 77 79 80 82 95
Route 10: 92 93 97 100
Vehicles: 10
Distance: 975.90
